323723
13,67,46,77,57,74,71,7,20,76,80,70,26,14,73,19,10,48,24,61,33,58,43,23,55,12,41,59,52,44,75,83,6,8,27,50,65,31,5,54,62,66,63,78,35,79,51,16,38,32,30,40,69,81,49,82,25,42,15,34,60,72,17,22,4,39,28,2,3,53,11,68,45,37,9,56,47,21,36,29,1,64,18